results/x-long/X-n167-k10.vrp_seed-37.vrp.sol
Route #1: 5 86 103 63 99
Route #2: 137 73 22 83 69 155 56 58 61 127 126 47 118 93 25 7 89 67
Route #3: 6 157 9 48 68 162 62 123 128 14 96 17 159 15 140 119 134
Route #4: 138 20 49 107 64 104 12 57 77 13 1 122 111 88 163 145 129 8
Route #5: 152 121 79 3 130 143 71 113 60 132 154 139 23 54 42 87 124
Route #6: 144 18 101 27 108 102 100 135 150 98 45 81 164 34 65 110 36 105 80
Route #7: 21 160 75 95 112 120 82 11 39 141 70 133 24 31 40 50 19 142 76
Route #8: 158 59 53 32 72 10 51 146 84 37 136 114 2 29 28 16 109
Route #9: 35 26 165 78 41 74 33 106 166 94 90 161 91 147 117 43 66 125
Route #10: 46 52 85 156 115 97 148 116 153 4 149 131 151 38 55 92 30 44
Cost 20557.000000